27 6
10 13 13 14 12 11
1 0 0 0 0 0 0 3 2 3 4
3 5 6 9 5 10 3 2 6 7
2 1 4 5 8 1 8 2 6 8
1 9 5 9 9 5 6 4 5 6 7 8
1 6 2 1 1 1 9 3 9 10 11
1 7 10 3 8 9 6 1 10
1 6 2 7 7 1 6 3 9 11 12
10 4 7 3 1 7 1 1 10
3 8 8 6 10 10 6 2 13 14
9 2 8 7 7 2 3 3 13 15 16
5 1 7 4 5 9 8 2 13 14
1 3 7 7 5 8 7 2 13 15
1 1 5 2 3 8 2 2 18 20
1 9 6 9 9 8 1 4 17 18 19 20
10 8 7 3 4 6 6 4 17 18 19 20
6 7 4 5 6 7 9 3 17 18 20
1 1 8 7 9 5 9 2 21 23
1 1 3 7 9 4 3 1 23
10 6 8 6 7 7 3 3 22 23 24
3 9 10 10 10 6 5 1 21
4 5 6 1 3 6 8 1 25
9 8 4 9 9 2 4 2 25 26
3 1 7 10 6 6 2 1 25
5 4 7 5 8 6 5 2 25 26
1 9 9 6 7 4 6 1 27
9 3 5 9 8 4 1 1 27
0 0 0 0 0 0 0 0
